p cnf 10 100
7 -8 3 0
-9 -10 -3 0
-7 6 -5 0
4 3 -5 0
1 5 2 0
-7 -6 10 0
6 3 9 0
-10 -7 8 0
-4 2 8 0
4 -2 -9 0
-3 -4 5 0
-9 -6 -3 0
1 4 -7 0
-4 8 -3 0
5 10 -4 0
1 5 -8 0
-4 1 9 0
9 -4 -5 0
1 10 9 0
10 1 8 0
2 -5 -4 0
-5 -9 3 0
1 3 2 0
6 7 8 0
6 -7 4 0
7 -9 5 0
-6 -9 -7 0
-10 8 -4 0
6 3 -8 0
8 -4 1 0
-7 -1 -3 0
-7 -1 5 0
3 4 -7 0
-1 3 -4 0
-10 -5 -4 0
-10 6 4 0
8 -3 -10 0
-9 -7 -4 0
2 -10 1 0
7 8 -9 0
4 1 6 0
4 -9 -10 0
-1 -7 -6 0
-6 2 -3 0
-1 -6 3 0
2 -6 -10 0
-4 -3 1 0
-6 -2 9 0
4 7 6 0
-7 -6 -1 0
9 -3 6 0
8 -9 6 0
-6 8 -4 0
-5 7 -9 0
9 -8 -10 0
5 4 -6 0
-9 -3 10 0
1 -4 3 0
-4 -10 -2 0
5 7 1 0
7 4 -1 0
-8 -3 6 0
-5 -6 -8 0
-9 8 -5 0
-9 -3 -7 0
-10 -4 5 0
-10 -4 -6 0
10 -7 -9 0
-8 -10 -6 0
2 9 -1 0
7 -9 3 0
2 -4 10 0
2 -3 1 0
-6 -10 -4 0
5 -7 10 0
3 4 6 0
-10 -6 1 0
8 3 -9 0
6 -7 -4 0
-6 5 -7 0
-6 -1 -2 0
6 -7 -9 0
-2 9 -5 0
5 10 -9 0
7 2 1 0
2 7 9 0
8 -10 4 0
9 -1 7 0
-4 -6 2 0
7 -6 4 0
-3 -5 1 0
10 -9 -6 0
-5 -8 -10 0
-9 1 7 0
-7 -1 -2 0
9 1 -8 0
5 6 1 0
-6 -8 -3 0
1 8 6 0
3 9 -7 0
